50
120
100
100
89
89
89
89
88
87
81
78
78
77
76
75
74
73
70
70
69
66
66
64
64
64
63
61
60
58
54
52
51
50
49
48
48
48
46
45
45
43
40
39
35
34
33
24
9
4
4
1
